p cnf 25 135
11 12 13 14 15 0
21 22 23 24 25 0
31 32 33 34 35 0
41 42 43 44 45 0
51 52 53 54 55 0
-11 -21 0
-11 -31 0
-11 -41 0
-11 -51 0
-21 -31 0
-21 -41 0
-21 -51 0
-31 -41 0
-31 -51 0
-41 -51 0
-12 -22 0
-12 -32 0
-12 -42 0
-12 -52 0
-22 -32 0
-22 -42 0
-22 -52 0
-32 -42 0
-32 -52 0
-42 -52 0
-13 -23 0
-13 -33 0
-13 -43 0
-13 -53 0
-23 -33 0
-23 -43 0
-23 -53 0
-33 -43 0
-33 -53 0
-43 -53 0
-14 -24 0
-14 -34 0
-14 -44 0
-14 -54 0
-24 -34 0
-24 -44 0
-24 -54 0
-34 -44 0
-34 -54 0
-44 -54 0
-15 -25 0
-15 -35 0
-15 -45 0
-15 -55 0
-25 -35 0
-25 -45 0
-25 -55 0
-35 -45 0
-35 -55 0
-45 -55 0
-11 -12 0
-11 -13 0
-11 -14 0
-11 -15 0
-12 -13 0
-12 -14 0
-12 -15 0
-13 -14 0
-13 -15 0
-14 -15 0
-21 -22 0
-21 -23 0
-21 -24 0
-21 -25 0
-22 -23 0
-22 -24 0
-22 -25 0
-23 -24 0
-23 -25 0
-24 -25 0
-31 -32 0
-31 -33 0
-31 -34 0
-31 -35 0
-32 -33 0
-32 -34 0
-32 -35 0
-33 -34 0
-33 -35 0
-34 -35 0
-41 -42 0
-41 -43 0
-41 -44 0
-41 -45 0
-42 -43 0
-42 -44 0
-42 -45 0
-43 -44 0
-43 -45 0
-44 -45 0
-51 -52 0
-51 -53 0
-51 -54 0
-51 -55 0
-52 -53 0
-52 -54 0
-52 -55 0
-53 -54 0
-53 -55 0
-54 -55 0
-11 -22 0
-11 -32 0
-11 -42 0-11 -52 0-21 -12 0
-21 -32 0
-21 -42 0-21 -52 0-31 -12 0
-31 -22 0
-31 -42 0-31 -52 0-41 -12 0
-41 -22 0
-41 -32 0
-41 -52 0-51 -12 0
-51 -22 0
-51 -32 0
-51 -42 0-12 -25 0
-12 -35 0
-12 -45 0-12 -55 0-22 -15 0
-22 -35 0
-22 -45 0-22 -55 0-32 -15 0
-32 -25 0
-32 -45 0-32 -55 0-42 -15 0
-42 -25 0
-42 -35 0
-42 -55 0-52 -15 0
-52 -25 0
-52 -35 0
-52 -45 0-13 -24 0
-13 -34 0
-13 -44 0-13 -54 0-23 -14 0
-23 -34 0
-23 -44 0-23 -54 0-33 -14 0
-33 -24 0
-33 -44 0-33 -54 0-43 -14 0
-43 -24 0
-43 -34 0
-43 -54 0-53 -14 0
-53 -24 0
-53 -34 0
-53 -44 0